data/hard_7.dzn
num_nodi = 9;
ufficio_postale = 8;
dim_borsa = 15;
max_step = 36;
elenco_lettere = [10, 5, 9, 10, 12, 15, 9, 0, 0];
distanze = [|0, 7, 7, 7, 19, 6, 11, 23, 9
|22, 0, 25, 15, 3, 1, 10, 18, 8
|3, 22, 0, 16, 1, 21, 20, 1, 20
|16, 5, 21, 0, 21, 22, 19, 1, 17
|4, 21, 6, 13, 0, 3, 12, 12, 6
|8, 16, 23, 4, 11, 0, 10, 4, 19
|16, 25, 11, 3, 8, 19, 0, 14, 23
|7, 3, 23, 24, 12, 12, 3, 0, 5
|6, 7, 8, 9, 17, 4, 19, 22, 0
|];
