data/hard_7.lp
node(1..9).

ufficio_postale(8).

dim_borsa(15).

time(1..36).

lettere(1,10).
lettere(2,5).
lettere(3,9).
lettere(4,10).
lettere(5,12).
lettere(6,15).
lettere(7,9).
lettere(8,0).
lettere(9,0).

costo_arco(1, 1, 0).
costo_arco(1, 2, 7).
costo_arco(1, 3, 7).
costo_arco(1, 4, 7).
costo_arco(1, 5, 19).
costo_arco(1, 6, 6).
costo_arco(1, 7, 11).
costo_arco(1, 8, 23).
costo_arco(1, 9, 9).

costo_arco(2, 1, 22).
costo_arco(2, 2, 0).
costo_arco(2, 3, 25).
costo_arco(2, 4, 15).
costo_arco(2, 5, 3).
costo_arco(2, 6, 1).
costo_arco(2, 7, 10).
costo_arco(2, 8, 18).
costo_arco(2, 9, 8).

costo_arco(3, 1, 3).
costo_arco(3, 2, 22).
costo_arco(3, 3, 0).
costo_arco(3, 4, 16).
costo_arco(3, 5, 1).
costo_arco(3, 6, 21).
costo_arco(3, 7, 20).
costo_arco(3, 8, 1).
costo_arco(3, 9, 20).

costo_arco(4, 1, 16).
costo_arco(4, 2, 5).
costo_arco(4, 3, 21).
costo_arco(4, 4, 0).
costo_arco(4, 5, 21).
costo_arco(4, 6, 22).
costo_arco(4, 7, 19).
costo_arco(4, 8, 1).
costo_arco(4, 9, 17).

costo_arco(5, 1, 4).
costo_arco(5, 2, 21).
costo_arco(5, 3, 6).
costo_arco(5, 4, 13).
costo_arco(5, 5, 0).
costo_arco(5, 6, 3).
costo_arco(5, 7, 12).
costo_arco(5, 8, 12).
costo_arco(5, 9, 6).

costo_arco(6, 1, 8).
costo_arco(6, 2, 16).
costo_arco(6, 3, 23).
costo_arco(6, 4, 4).
costo_arco(6, 5, 11).
costo_arco(6, 6, 0).
costo_arco(6, 7, 10).
costo_arco(6, 8, 4).
costo_arco(6, 9, 19).

costo_arco(7, 1, 16).
costo_arco(7, 2, 25).
costo_arco(7, 3, 11).
costo_arco(7, 4, 3).
costo_arco(7, 5, 8).
costo_arco(7, 6, 19).
costo_arco(7, 7, 0).
costo_arco(7, 8, 14).
costo_arco(7, 9, 23).

costo_arco(8, 1, 7).
costo_arco(8, 2, 3).
costo_arco(8, 3, 23).
costo_arco(8, 4, 24).
costo_arco(8, 5, 12).
costo_arco(8, 6, 12).
costo_arco(8, 7, 3).
costo_arco(8, 8, 0).
costo_arco(8, 9, 5).

costo_arco(9, 1, 6).
costo_arco(9, 2, 7).
costo_arco(9, 3, 8).
costo_arco(9, 4, 9).
costo_arco(9, 5, 17).
costo_arco(9, 6, 4).
costo_arco(9, 7, 19).
costo_arco(9, 8, 22).
costo_arco(9, 9, 0).

